<number of tasks>
50

<cycle time>
1000

<order strength>
0.205


<task times>
1 525
2 292
3 571
4 403
5 335
6 425
7 404
8 514
9 728
10 457
11 486
12 484
13 423
14 452
15 516
16 457
17 374
18 514
19 468
20 477
21 428
22 443
23 250
24 313
25 564
26 521
27 599
28 582
29 380
30 694
31 286
32 403
33 550
34 585
35 429
36 472
37 510
38 522
39 561
40 382
41 455
42 594
43 368
44 510
45 511
46 361
47 428
48 450
49 324
50 574

<precedence relations>
1,15
2,15
3,15
4,6
4,7
4,8
4,9
4,10
4,11
4,12
4,13
4,14
6,15
7,15
8,16
9,17
11,18
11,20
12,40
14,19
15,21
15,22
15,23
15,24
15,25
15,29
16,27
17,26
18,28
21,34
21,40
22,33
22,44
24,48
26,32
27,31
28,30
29,47
30,35
31,36
32,37
32,39
33,38
33,40
34,46
35,42
36,43
37,41
37,44
38,46
39,50
41,45
42,49
43,47
44,46
44,48
44,50

<end>
